c WARNING: for repeatability, setting FPU to use double precision
d VARIABLES            120738       
d CONSTRAINTS          534820       
c ============================[ Problem Statistics ]=============================
c |                                                                             |
c |  Number of variables:        120738                                         |
c |  Number of clauses:          534820                                         |
c |  Parse time:                   0.07 s                                       |
c |                                                                             |
c ============================[ Search Statistics ]==============================
c | Conflicts |          ORIGINAL         |          LEARNT          | Progress |
c |           |    Vars  Clauses Literals |    Limit  Clauses Lit/Cl |          |
c ===============================================================================
c |       100 |  101849   480940  1166418 |   176344      100     23 | 15.645 % |
c |       250 |  101849   480940  1166418 |   193979      250     53 | 15.645 % |
c |       475 |  101849   480940  1166418 |   213377      475     83 | 15.645 % |
c |       812 |  101849   480940  1166418 |   234714      812    126 | 15.645 % |
c |      1318 |  101849   480940  1166418 |   258186     1318    125 | 15.645 % |
c |      2077 |  101849   480940  1166418 |   284004     2077    130 | 15.645 % |
c |      3216 |  101849   480940  1166418 |   312405     3216    147 | 15.645 % |
c |      4924 |  101849   480940  1166418 |   343645     4924    152 | 15.645 % |
c |      7486 |  101849   480940  1166418 |   378010     7486    162 | 15.645 % |
c |     11330 |  101849   480940  1166418 |   415811    11330    171 | 15.645 % |
c |     17096 |  101849   480940  1166418 |   457392    17096    203 | 15.645 % |
c |     25745 |  101849   480940  1166418 |   503131    25745    212 | 15.645 % |
c |     38719 |  101849   480940  1166418 |   553445    38719    223 | 15.645 % |
c |     58180 |  101849   480940  1166418 |   608789    58180    202 | 15.645 % |
c |     87372 |  101849   480940  1166418 |   669668    87372    192 | 15.645 % |
c |    131161 |  101849   480940  1166418 |   736635   131161    193 | 15.645 % |
c |    196845 |  101849   480940  1166418 |   810298   196845    189 | 15.645 % |
c |    295371 |  101849   480940  1166418 |   891328   295371    197 | 15.645 % |
c |    443160 |  101840   480895  1166310 |   980461   443158    195 | 15.652 % |
c |    664843 |  101840   480895  1166310 |  1078507   664841    187 | 15.652 % |
c |    997368 |  101840   480895  1166310 |  1186358   997366    181 | 15.652 % |
c |   1496156 |  101840   480895  1166310 |  1304994   324465    136 | 15.652 % |
c ===============================================================================
c restarts              : 4064
c conflicts             : 2047977        (1144 /sec)
c decisions             : 4857235        (0.00 % random) (2712 /sec)
c propagations          : 3386225362     (1890998 /sec)
c conflict literals     : 338392179      (39.83 % deleted)
d RESTARTS             4064
d FAILURES             2047977      
d NODES                4857235      
d BACKTRACKS           4857235      
d PROPAGATIONS         3386225362   
d NOGOODSIZE           165.23 
d MEMORY               1041.00 
d TIME                 1790.71 

s UNKNOWN
